
Value of objective function: 0.96000000

Actual values of the variables:
A                             1.2
B                             2.4
C                               0
D                               0
E                               0
X                               4
Y                               0
Z                               0
